letting n =  10
letting blocks =  [[1, 4], [1, 6], [1, 9], [1, 10], [2, 7], [3, 3], [3, 4], [3, 5], [3, 6], [3, 9], [4, 2], [4, 10], [5, 3], [5, 7], [6, 1], [6, 6], [6, 7], [6, 9], [8, 5], [9, 5], [9, 10], [10, 1], [10, 6], [10, 7]]
